tutorial3/exercises/coins-grid/.solution/__tmp.lp
Minimize
 obj: X0
Subject To
 -X0 >= -40
 X0 >= 0
 -X1 >= -1
 X1 >= 0
 -X1 - X2 - X3 - X4 = -3
 -X1 - X5 - X9 - X13 = -3
 -X2 >= -1
 X2 >= 0
 -X2 - X6 - X10 - X14 = -3
 -X2 - X5 - X7 - X10 - X12 - X15 - 4 X3 - 4 X8 - 4 X9 - 4 X14 - 9 X4 - 9 X13 + X0 = 0
 -X3 >= -1
 X3 >= 0
 -X3 - X7 - X11 - X15 = -3
 -X4 >= -1
 X4 >= 0
 -X4 - X8 - X12 - X16 = -3
 -X4 + X13 >= 0
 -X5 >= -1
 X5 >= 0
 -X5 - X6 - X7 - X8 = -3
 -X6 >= -1
 X6 >= 0
 -X7 >= -1
 X7 >= 0
 -X8 >= -1
 X8 >= 0
 -X9 >= -1
 X9 >= 0
 -X9 - X10 - X11 - X12 = -3
 -X10 >= -1
 X10 >= 0
 -X11 >= -1
 X11 >= 0
 -X12 >= -1
 X12 >= 0
 -X13 >= -1
 X13 >= 0
 -X13 - X14 - X15 - X16 = -3
 -X14 >= -1
 X14 >= 0
 -X15 >= -1
 X15 >= 0
 -X16 >= -1
 X16 >= 0
Bounds
 0 <= X0 <= 40
 0 <= X1 <= 1
 0 <= X2 <= 1
 0 <= X3 <= 1
 0 <= X4 <= 1
 0 <= X5 <= 1
 0 <= X6 <= 1
 0 <= X7 <= 1
 0 <= X8 <= 1
 0 <= X9 <= 1
 0 <= X10 <= 1
 0 <= X11 <= 1
 0 <= X12 <= 1
 0 <= X13 <= 1
 0 <= X14 <= 1
 0 <= X15 <= 1
 0 <= X16 <= 1
Integers
 X0
 X1
 X2
 X3
 X4
 X5
 X6
 X7
 X8
 X9
 X10
 X11
 X12
 X13
 X14
 X15
 X16
End
