tutorial3/exercises/coins-grid/.solution/__tmp.sol
Optimal - objective value 20.00000000
      0 X0                    20                       1
      1 X1                     1                       0
      2 X2                     1                       0
      3 X3                     1                       0
      4 X4                     0                       0
      5 X5                     1                       0
      6 X9                     1                       0
      7 X13                    0                       0
      8 X6                     1                       0
      9 X10                    0                       0
     10 X14                    1                       0
     11 X7                     0                       0
     12 X12                    1                       0
     13 X15                    1                       0
     14 X8                     1                       0
     15 X11                    1                       0
     16 X16                    1                       0
